20
1 0 2
3 0 6
3 2 6
4 0 5
4 2 12
4 3 1
5 1 1
5 4 3
6 0 8
6 3 10
6 4 3
7 2 2
7 4 7
7 5 1
7 6 8
8 3 6
8 4 11
8 6 7
8 7 10
9 2 7
9 4 4
10 0 10
10 1 3
10 3 10
10 5 10
10 6 5
11 1 2
11 2 5
11 5 5
12 0 2
12 2 12
12 5 5
12 6 7
12 7 1
13 0 7
13 2 2
13 3 11
13 11 5
14 3 1
14 5 8
14 10 12
15 2 2
15 7 5
15 8 4
15 9 6
15 10 1
15 11 7
15 12 11
16 0 8
16 5 1
16 6 9
16 8 8
16 9 10
16 10 1
16 12 2
16 13 6
16 15 9
17 0 2
17 2 5
17 4 4
17 5 6
17 6 3
17 7 5
17 12 2
17 13 4
18 1 1
18 3 4
18 4 8
18 5 3
18 9 6
18 10 5
18 11 7
18 13 4
18 14 9
18 16 4
19 0 1
19 2 2
19 3 3
19 8 9
19 10 8
19 12 10
19 15 9
19 17 12
19 18 2
